
Gurobi 11.0.2 (win64) logging started Mon Aug 19 08:57:57 2024

Set parameter LogFile to value "D:\Documenti\Scuola\Laurea magistrale unibs\laurea-unibs-mkfsp\output\2024-08-19T06_36_50.601237\logs\instance03_bucket5.log"
Set parameter TimeLimit to value 350
Set parameter MIPGap to value 0
Gurobi Optimizer version 11.0.2 build v11.0.2rc0 (win64 - Windows 10.0 (19045.2))

CPU model: Intel(R) Core(TM) i5-4670 CPU @ 3.40GHz, instruction set [SSE2|AVX|AVX2]
Thread count: 4 physical cores, 4 logical processors, using up to 4 threads

Optimize a model with 2665 rows, 13834 columns and 148525 nonzeros
Model fingerprint: 0x1b4ea843
Variable types: 0 continuous, 13834 integer (13727 binary)
Coefficient statistics:
  Matrix range     [1e+00, 8e+03]
  Objective range  [6e+02, 8e+03]
  Bounds range     [1e+00, 1e+00]
  RHS range        [1e+00, 5e+05]
Presolve time: 0.21s
Presolved: 2665 rows, 13834 columns, 148525 nonzeros
Variable types: 0 continuous, 13834 integer (13727 binary)
Found heuristic solution: objective 591525.00000
Deterministic concurrent LP optimizer: primal and dual simplex
Showing primal log only...

Concurrent spin time: 0.00s

Solved with dual simplex

Root relaxation: objective 6.149650e+05, 897 iterations, 0.08 seconds (0.09 work units)

    Nodes    |    Current Node    |     Objective Bounds      |     Work
 Expl Unexpl |  Obj  Depth IntInf | Incumbent    BestBd   Gap | It/Node Time

     0     0 614965.000    0    3 591525.000 614965.000  3.96%     -    0s
H    0     0                    613601.00000 614965.000  0.22%     -    0s
H    0     0                    614965.00000 614965.000  0.00%     -    0s
     0     0 614965.000    0    3 614965.000 614965.000  0.00%     -    0s

Explored 1 nodes (3615 simplex iterations) in 0.54 seconds (0.42 work units)
Thread count was 4 (of 4 available processors)

Solution count 3: 614965 613601 591525 

Optimal solution found (tolerance 0.00e+00)
Best objective 6.149650000000e+05, best bound 6.149650000000e+05, gap 0.0000%
